WARNING: for repeatability, setting FPU to use double precision
============================[ Problem Statistics ]=============================
|                                                                             |
|  Number of variables:            50                                         |
|  Number of clauses:             218                                         |
|  Parse time:                   0.00 s                                       |
|                                                                             |
============================[ Search Statistics ]==============================
| Conflicts |          ORIGINAL         |          LEARNT          | Progress |
|           |    Vars  Clauses Literals |    Limit  Clauses Lit/Cl |          |
===============================================================================
===============================================================================
restarts              : 1
conflicts             : 61             (303483 /sec)
decisions             : 66             (0.00 % random) (328358 /sec)
propagations          : 966            (4805970 /sec)
conflict literals     : 226            (25.17 % deleted)
Memory used           : 20.00 MB
CPU time              : 0.000201 s

UNSATISFIABLE
